(set-logic ALL)
(declare-const lines String)
(declare-const parameters String)
(assert (< 0 (str.len lines)))
(assert (not (str.contains (str.at lines 0) "Base frequencies")))
(assert (not (str.contains (str.at lines 0) "base frequency parameters")))
(assert (not (str.contains (str.at lines 0) "Base frequencies")))
(assert (not (str.contains (str.at lines 0) "freq: ")))
(assert (not (str.contains (str.at lines 0) "(frequency parameters for branches)")))
(assert (< 1 (str.len lines)))
(assert (not (str.contains (str.at lines 1) "Base frequencies")))
(assert (not (str.contains (str.at lines 1) "base frequency parameters")))
(assert (not (str.contains (str.at lines 1) "Base frequencies")))
(assert (not (str.contains (str.at lines 1) "freq: ")))
(assert (not (str.contains (str.at lines 1) "(frequency parameters for branches)")))
(assert (< 2 (str.len lines)))
(assert (not (str.contains (str.at lines 2) "Base frequencies")))
(assert (not (str.contains (str.at lines 2) "base frequency parameters")))
(assert (not (str.contains (str.at lines 2) "Base frequencies")))
(assert (not (str.contains (str.at lines 2) "freq: ")))
(assert (not (str.contains (str.at lines 2) "(frequency parameters for branches)")))
(assert (< 3 (str.len lines)))
(assert (not (str.contains (str.at lines 3) "Base frequencies")))
(assert (not (str.contains (str.at lines 3) "base frequency parameters")))
(assert (not (str.contains (str.at lines 3) "Base frequencies")))
(assert (not (str.contains (str.at lines 3) "freq: ")))
(assert (not (str.contains (str.at lines 3) "(frequency parameters for branches)")))
(assert (< 4 (str.len lines)))
(assert (not (str.contains (str.at lines 4) "Base frequencies")))
(assert (not (str.contains (str.at lines 4) "base frequency parameters")))
(assert (not (str.contains (str.at lines 4) "Base frequencies")))
(assert (not (str.contains (str.at lines 4) "freq: ")))
(assert (not (str.contains (str.at lines 4) "(frequency parameters for branches)")))
(assert (< 5 (str.len lines)))
(assert (not (str.contains (str.at lines 5) "Base frequencies")))
(assert (not (str.contains (str.at lines 5) "base frequency parameters")))
(assert (not (str.contains (str.at lines 5) "Base frequencies")))
(assert (not (str.contains (str.at lines 5) "freq: ")))
(assert (not (str.contains (str.at lines 5) "(frequency parameters for branches)")))
(assert (< 6 (str.len lines)))
(assert (not (str.contains (str.at lines 6) "Base frequencies")))
(assert (not (str.contains (str.at lines 6) "base frequency parameters")))
(assert (not (str.contains (str.at lines 6) "Base frequencies")))
(assert (not (str.contains (str.at lines 6) "freq: ")))
(assert (not (str.contains (str.at lines 6) "(frequency parameters for branches)")))
(assert (< 7 (str.len lines)))
(assert (not (str.contains (str.at lines 7) "Base frequencies")))
(assert (not (str.contains (str.at lines 7) "base frequency parameters")))
(assert (not (str.contains (str.at lines 7) "Base frequencies")))
(assert (not (str.contains (str.at lines 7) "freq: ")))
(assert (not (str.contains (str.at lines 7) "(frequency parameters for branches)")))
(assert (< 8 (str.len lines)))
(assert (not (str.contains (str.at lines 8) "Base frequencies")))
(assert (not (str.contains (str.at lines 8) "base frequency parameters")))
(assert (not (str.contains (str.at lines 8) "Base frequencies")))
(assert (not (str.contains (str.at lines 8) "freq: ")))
(assert (not (str.contains (str.at lines 8) "(frequency parameters for branches)")))
(assert (< 9 (str.len lines)))
(assert (not (str.contains (str.at lines 9) "Base frequencies")))
(assert (not (str.contains (str.at lines 9) "base frequency parameters")))
(assert (not (str.contains (str.at lines 9) "Base frequencies")))
(assert (not (str.contains (str.at lines 9) "freq: ")))
(assert (not (str.contains (str.at lines 9) "(frequency parameters for branches)")))
(assert (< 10 (str.len lines)))
(assert (not (str.contains (str.at lines 10) "Base frequencies")))
(assert (not (str.contains (str.at lines 10) "base frequency parameters")))
(assert (not (str.contains (str.at lines 10) "Base frequencies")))
(assert (not (str.contains (str.at lines 10) "freq: ")))
(assert (not (str.contains (str.at lines 10) "(frequency parameters for branches)")))
(assert (< 11 (str.len lines)))
(assert (not (str.contains (str.at lines 11) "Base frequencies")))
(assert (not (str.contains (str.at lines 11) "base frequency parameters")))
(assert (not (str.contains (str.at lines 11) "Base frequencies")))
(assert (not (str.contains (str.at lines 11) "freq: ")))
(assert (not (str.contains (str.at lines 11) "(frequency parameters for branches)")))
(assert (< 12 (str.len lines)))
(assert (not (str.contains (str.at lines 12) "Base frequencies")))
(assert (not (str.contains (str.at lines 12) "base frequency parameters")))
(assert (not (str.contains (str.at lines 12) "Base frequencies")))
(assert (not (str.contains (str.at lines 12) "freq: ")))
(assert (not (str.contains (str.at lines 12) "(frequency parameters for branches)")))
(assert (< 13 (str.len lines)))
(assert (not (str.contains (str.at lines 13) "Base frequencies")))
(assert (not (str.contains (str.at lines 13) "base frequency parameters")))
(assert (not (str.contains (str.at lines 13) "Base frequencies")))
(assert (not (str.contains (str.at lines 13) "freq: ")))
(assert (not (str.contains (str.at lines 13) "(frequency parameters for branches)")))
(assert (< 14 (str.len lines)))
(assert (not (str.contains (str.at lines 14) "Base frequencies")))
(assert (not (str.contains (str.at lines 14) "base frequency parameters")))
(assert (not (str.contains (str.at lines 14) "Base frequencies")))
(assert (not (str.contains (str.at lines 14) "freq: ")))
(assert (not (str.contains (str.at lines 14) "(frequency parameters for branches)")))
(assert (< 15 (str.len lines)))
(assert (not (str.contains (str.at lines 15) "Base frequencies")))
(assert (not (str.contains (str.at lines 15) "base frequency parameters")))
(assert (not (str.contains (str.at lines 15) "Base frequencies")))
(assert (not (str.contains (str.at lines 15) "freq: ")))
(assert (not (str.contains (str.at lines 15) "(frequency parameters for branches)")))
(assert (< 16 (str.len lines)))
(assert (not (str.contains (str.at lines 16) "Base frequencies")))
(assert (not (str.contains (str.at lines 16) "base frequency parameters")))
(assert (not (str.contains (str.at lines 16) "Base frequencies")))
(assert (not (str.contains (str.at lines 16) "freq: ")))
(assert (not (str.contains (str.at lines 16) "(frequency parameters for branches)")))
(assert (< 17 (str.len lines)))
(assert (not (str.contains (str.at lines 17) "Base frequencies")))
(assert (not (str.contains (str.at lines 17) "base frequency parameters")))
(assert (not (str.contains (str.at lines 17) "Base frequencies")))
(assert (not (str.contains (str.at lines 17) "freq: ")))
(assert (not (str.contains (str.at lines 17) "(frequency parameters for branches)")))
(assert (< 18 (str.len lines)))
(assert (not (str.contains (str.at lines 18) "Base frequencies")))
(assert (not (str.contains (str.at lines 18) "base frequency parameters")))
(assert (not (str.contains (str.at lines 18) "Base frequencies")))
(assert (not (str.contains (str.at lines 18) "freq: ")))
(assert (not (str.contains (str.at lines 18) "(frequency parameters for branches)")))
(assert (< 19 (str.len lines)))
(assert (not (str.contains (str.at lines 19) "Base frequencies")))
(assert (not (str.contains (str.at lines 19) "base frequency parameters")))
(assert (not (str.contains (str.at lines 19) "Base frequencies")))
(assert (not (str.contains (str.at lines 19) "freq: ")))
(assert (not (str.contains (str.at lines 19) "(frequency parameters for branches)")))
(assert (< 20 (str.len lines)))
(assert (not (str.contains (str.at lines 20) "Base frequencies")))
(assert (not (str.contains (str.at lines 20) "base frequency parameters")))
(assert (not (str.contains (str.at lines 20) "Base frequencies")))
(assert (not (str.contains (str.at lines 20) "freq: ")))
(assert (not (str.contains (str.at lines 20) "(frequency parameters for branches)")))
(assert (< 21 (str.len lines)))
(assert (not (str.contains (str.at lines 21) "Base frequencies")))
(assert (not (str.contains (str.at lines 21) "base frequency parameters")))
(assert (not (str.contains (str.at lines 21) "Base frequencies")))
(assert (not (str.contains (str.at lines 21) "freq: ")))
(assert (not (str.contains (str.at lines 21) "(frequency parameters for branches)")))
(assert (< 22 (str.len lines)))
(assert (not (str.contains (str.at lines 22) "Base frequencies")))
(assert (not (str.contains (str.at lines 22) "base frequency parameters")))
(assert (not (str.contains (str.at lines 22) "Base frequencies")))
(assert (not (str.contains (str.at lines 22) "freq: ")))
(assert (not (str.contains (str.at lines 22) "(frequency parameters for branches)")))
(assert (< 23 (str.len lines)))
(assert (not (str.contains (str.at lines 23) "Base frequencies")))
(assert (not (str.contains (str.at lines 23) "base frequency parameters")))
(assert (not (str.contains (str.at lines 23) "Base frequencies")))
(assert (not (str.contains (str.at lines 23) "freq: ")))
(assert (not (str.contains (str.at lines 23) "(frequency parameters for branches)")))
(assert (< 24 (str.len lines)))
(assert (not (str.contains (str.at lines 24) "Base frequencies")))
(assert (not (str.contains (str.at lines 24) "base frequency parameters")))
(assert (not (str.contains (str.at lines 24) "Base frequencies")))
(assert (not (str.contains (str.at lines 24) "freq: ")))
(assert (not (str.contains (str.at lines 24) "(frequency parameters for branches)")))
(assert (< 25 (str.len lines)))
(assert (str.contains (str.at lines 25) "Base frequencies"))
(check-sat)
(get-value (lines))
(get-value (parameters))
